50

100 25 176
99 14 255
99 24 180
97 21 283
97 23 193
96 26 326
96 12 171
96 8 267
93 23 283
93 20 301
91 16 254
84 21 155
83 18 305
81 6 333
79 23 212
78 3 325
77 7 225
74 9 174
71 13 257
67 15 206
66 15 354
63 13 353
62 9 158
61 15 202
61 5 357
61 1 288
59 5 345
59 11 233
59 14 245
58 10 328
57 1 323
56 2 360
54 10 313
54 7 177
53 13 187
53 15 231
51 4 306
50 1 179
49 13 154
48 2 317
45 11 251
45 4 190
45 11 199
40 9 359
40 7 294
39 12 337
39 7 333
34 6 228
32 6 332
30 7 322
